SDVRP instances/p03/p03_1050_tsplib0_splitx10_0.vrp
NAME:.\SDVRP_splitx10_
BEST_KNOWN: 0
COMMENT: 0
DIMENSION: 472
CAPACITY: 2000
EDGE_WEIGHT_FORMAT: FUNCTION
EDGE_WEIGHT_TYPE: EXACT_2D
NODE_COORD_SECTION
1 0.00000 0.00000
2 6 14
3 6 14
4 6 14
5 6 14
6 6 14
7 6 14
8 0 -18
9 0 -18
10 0 -18
11 20 10
12 20 10
13 20 10
14 20 10
15 20 10
16 20 10
17 20 -15
18 20 -15
19 20 -15
20 20 -15
21 -20 -5
22 -20 -5
23 -20 -5
24 -20 -5
25 -10 -5
26 -10 -5
27 -10 -5
28 -10 -5
29 -10 -5
30 -10 -5
31 -15 15
32 -15 15
33 -15 15
34 -15 15
35 -15 15
36 -15 15
37 -15 15
38 -25 8
39 -25 8
40 -25 8
41 -25 8
42 -25 8
43 20 25
44 20 25
45 20 25
46 20 25
47 20 25
48 -5 25
49 -5 25
50 -15 30
51 -15 30
52 -15 30
53 -15 30
54 15 0
55 15 0
56 15 0
57 -5 -10
58 -5 -10
59 -5 -10
60 -5 -10
61 -5 -10
62 -5 -10
63 -20 -25
64 -20 -25
65 -20 -25
66 -5 -30
67 -5 -30
68 -5 -30
69 -5 -30
70 -5 -30
71 -5 -30
72 -25 -15
73 -25 -15
74 -25 -15
75 -30 -5
76 -30 -5
77 -30 -5
78 -30 -5
79 -15 5
80 -15 5
81 -20 25
82 -20 25
83 -20 25
84 -20 25
85 -20 25
86 -20 25
87 10 30
88 10 30
89 10 30
90 10 30
91 10 -15
92 10 -15
93 10 -15
94 10 -15
95 10 -15
96 10 -25
97 10 -25
98 10 -25
99 20 -30
100 20 -30
101 20 -30
102 20 -30
103 30 0
104 30 0
105 30 0
106 30 0
107 30 0
108 30 -15
109 30 -15
110 30 -15
111 30 -15
112 10 -5
113 10 -5
114 10 -5
115 10 -5
116 10 -5
117 10 -5
118 10 -5
119 0 5
120 0 5
121 6 2
122 6 2
123 6 2
124 29 7
125 29 7
126 29 7
127 5 25
128 5 25
129 5 25
130 5 25
131 5 25
132 -4 17
133 -4 17
134 -4 17
135 -4 17
136 -4 17
137 -4 17
138 0 34
139 0 34
140 0 34
141 0 34
142 18 17
143 18 17
144 18 17
145 18 17
146 18 17
147 30 20
148 30 20
149 30 20
150 30 20
151 30 20
152 30 20
153 28 30
154 28 30
155 28 30
156 28 30
157 28 30
158 28 30
159 -33 25
160 -33 25
161 -33 25
162 -33 25
163 -33 25
164 -33 25
165 -15 -15
166 -15 -15
167 -15 -15
168 -30 -30
169 -30 -30
170 -30 -30
171 -30 -30
172 -30 -30
173 -30 -30
174 25 -23
175 25 -23
176 25 -23
177 25 -23
178 25 -23
179 25 -23
180 5 -10
181 5 -10
182 5 -10
183 5 -10
184 5 -10
185 7 -28
186 7 -28
187 7 -28
188 7 -28
189 7 -28
190 -11 -23
191 -11 -23
192 -11 -23
193 -11 -23
194 -12 -32
195 -12 -32
196 -12 -32
197 -24 -21
198 -24 -21
199 -24 -21
200 -24 -21
201 -24 -21
202 -29 3
203 -29 3
204 -29 3
205 -33 13
206 -33 13
207 -27 21
208 -27 21
209 -27 21
210 -27 21
211 -27 21
212 -27 21
213 -27 21
214 -22 17
215 -22 17
216 -22 17
217 -22 17
218 -29 33
219 -29 33
220 -29 33
221 -29 33
222 -29 33
223 -29 33
224 12 12
225 12 12
226 12 12
227 12 12
228 12 12
229 12 12
230 12 12
231 14 23
232 14 23
233 14 23
234 14 23
235 14 23
236 -8 8
237 -8 8
238 -8 8
239 -8 8
240 2 -4
241 2 -4
242 2 -4
243 2 -4
244 22 -6
245 22 -6
246 22 -6
247 22 -6
248 22 -6
249 28 -12
250 28 -12
251 28 -12
252 28 -12
253 28 -12
254 28 -12
255 28 -12
256 28 -12
257 18 -23
258 18 -23
259 18 -23
260 18 -23
261 18 -23
262 18 -23
263 18 -23
264 -3 -23
265 -3 -23
266 -3 -23
267 1 -9
268 1 -9
269 1 -9
270 1 -9
271 1 -9
272 1 -9
273 -14 -11
274 -14 -11
275 -14 -11
276 -18 -1
277 -18 -1
278 -18 -1
279 -18 -1
280 -18 -1
281 -23 -11
282 -23 -11
283 -23 -11
284 -11 23
285 -11 23
286 -8 34
287 -8 34
288 -8 34
289 -8 34
290 -20 42
291 -20 42
292 -20 42
293 27 42
294 27 42
295 27 42
296 27 42
297 27 42
298 14 38
299 14 38
300 14 38
301 14 38
302 14 38
303 14 38
304 32 -30
305 32 -30
306 32 -30
307 32 -30
308 32 -30
309 32 -30
310 21 4
311 21 4
312 21 4
313 21 4
314 21 4
315 2 12
316 2 12
317 2 12
318 2 12
319 2 12
320 2 12
321 2 12
322 2 21
323 2 21
324 2 21
325 2 21
326 2 21
327 2 21
328 2 21
329 22 33
330 22 33
331 22 33
332 22 33
333 22 33
334 22 33
335 12 -19
336 12 -19
337 12 -19
338 12 -19
339 9 -18
340 9 -18
341 9 -18
342 9 -18
343 9 -18
344 9 -18
345 11 -22
346 11 -22
347 11 -22
348 11 -22
349 11 -22
350 11 -22
351 11 -22
352 11 -22
353 14 -24
354 14 -24
355 14 -24
356 14 7
357 14 7
358 14 7
359 14 7
360 18 8
361 18 8
362 18 8
363 18 8
364 18 8
365 26 17
366 26 17
367 26 17
368 26 17
369 26 17
370 26 17
371 26 17
372 22 13
373 22 13
374 22 13
375 22 13
376 22 13
377 21 2
378 21 2
379 21 2
380 21 2
381 20 19
382 20 19
383 20 19
384 20 19
385 -20 12
386 -20 12
387 -21 2
388 -21 2
389 -21 2
390 -21 2
391 -21 2
392 -24 -4
393 -24 -4
394 -24 -4
395 -24 -4
396 -19 -13
397 -19 -13
398 -19 -13
399 -19 -13
400 -19 -13
401 -19 -13
402 -19 -13
403 -31 -17
404 -31 -17
405 -31 -17
406 -7 -17
407 -7 -17
408 -7 -17
409 -7 -17
410 -7 -17
411 -7 -17
412 -7 -17
413 -9 17
414 -9 17
415 -9 17
416 -9 17
417 -9 0
418 -9 0
419 -9 0
420 -9 0
421 -9 0
422 -9 0
423 -4 32
424 -4 32
425 -4 32
426 -4 32
427 -4 32
428 -4 32
429 -20 -16
430 -20 -16
431 -20 -16
432 -20 -16
433 -20 -16
434 -13 -13
435 -13 -13
436 -13 -13
437 -13 -13
438 -13 -13
439 -17 -11
440 -17 -11
441 -17 -11
442 -17 -11
443 -9 -8
444 -9 -8
445 -9 -8
446 -9 -8
447 -9 -8
448 -9 -8
449 -10 -11
450 -10 -11
451 -10 -11
452 -10 -11
453 -10 -11
454 -13 -8
455 -13 -8
456 -13 -8
457 -13 -8
458 -10 -14
459 -10 -14
460 -10 -14
461 -16 -14
462 -16 -14
463 -16 -14
464 -16 -14
465 -15 -9
466 -15 -9
467 -15 -9
468 -17 -17
469 -17 -17
470 -17 -17
471 -17 -17
472 -17 -17
DEMAND_SECTION
1 0
2 400
3 400
4 20
5 20
6 20
7 20
8 400
9 100
10 10
11 200
12 100
13 20
14 20
15 20
16 20
17 400
18 200
19 20
20 20
21 400
22 400
23 100
24 20
25 400
26 400
27 20
28 20
29 20
30 20
31 400
32 100
33 20
34 20
35 20
36 20
37 10
38 200
39 20
40 20
41 20
42 20
43 200
44 100
45 20
46 20
47 20
48 200
49 20
50 400
51 400
52 20
53 20
54 400
55 100
56 10
57 400
58 100
59 20
60 20
61 20
62 10
63 400
64 200
65 10
66 400
67 200
68 100
69 20
70 20
71 20
72 400
73 20
74 10
75 200
76 20
77 20
78 20
79 400
80 200
81 400
82 400
83 20
84 20
85 20
86 20
87 400
88 200
89 20
90 10
91 200
92 20
93 20
94 20
95 20
96 400
97 200
98 100
99 400
100 200
101 100
102 20
103 400
104 200
105 20
106 20
107 20
108 400
109 400
110 20
111 10
112 400
113 200
114 100
115 20
116 20
117 20
118 20
119 200
120 20
121 400
122 400
123 20
124 200
125 100
126 20
127 200
128 20
129 20
130 20
131 20
132 400
133 400
134 20
135 20
136 20
137 20
138 400
139 400
140 20
141 20
142 400
143 400
144 20
145 20
146 20
147 200
148 100
149 20
150 20
151 20
152 10
153 400
154 400
155 20
156 20
157 20
158 10
159 400
160 100
161 20
162 20
163 20
164 20
165 400
166 400
167 20
168 400
169 100
170 20
171 20
172 20
173 20
174 400
175 100
176 20
177 20
178 20
179 20
180 400
181 400
182 20
183 20
184 20
185 200
186 100
187 20
188 20
189 10
190 200
191 20
192 20
193 10
194 400
195 200
196 100
197 400
198 200
199 100
200 20
201 10
202 400
203 400
204 100
205 400
206 20
207 400
208 100
209 20
210 20
211 20
212 20
213 10
214 400
215 100
216 20
217 20
218 400
219 400
220 20
221 20
222 20
223 10
224 400
225 200
226 20
227 20
228 20
229 20
230 10
231 400
232 200
233 100
234 20
235 10
236 400
237 200
238 100
239 20
240 200
241 20
242 20
243 20
244 400
245 400
246 100
247 20
248 10
249 400
250 200
251 100
252 20
253 20
254 20
255 20
256 10
257 400
258 200
259 100
260 20
261 20
262 20
263 20
264 400
265 20
266 20
267 400
268 200
269 100
270 20
271 20
272 20
273 400
274 100
275 20
276 400
277 20
278 20
279 20
280 10
281 400
282 400
283 100
284 400
285 10
286 400
287 20
288 20
289 10
290 400
291 20
292 10
293 400
294 20
295 20
296 20
297 20
298 400
299 100
300 20
301 20
302 20
303 20
304 400
305 400
306 20
307 20
308 20
309 20
310 200
311 20
312 20
313 20
314 10
315 400
316 400
317 100
318 20
319 20
320 20
321 20
322 400
323 400
324 20
325 20
326 20
327 20
328 10
329 400
330 400
331 100
332 20
333 20
334 10
335 400
336 400
337 100
338 10
339 400
340 400
341 20
342 20
343 20
344 10
345 400
346 400
347 100
348 20
349 20
350 20
351 20
352 10
353 200
354 20
355 20
356 400
357 20
358 20
359 20
360 400
361 200
362 20
363 20
364 20
365 400
366 200
367 100
368 20
369 20
370 20
371 10
372 400
373 200
374 20
375 20
376 10
377 400
378 400
379 20
380 20
381 400
382 200
383 100
384 20
385 400
386 20
387 400
388 200
389 100
390 20
391 20
392 400
393 200
394 100
395 10
396 400
397 400
398 100
399 20
400 20
401 20
402 20
403 400
404 400
405 20
406 400
407 400
408 100
409 20
410 20
411 20
412 20
413 400
414 400
415 20
416 20
417 400
418 400
419 20
420 20
421 20
422 20
423 200
424 20
425 20
426 20
427 20
428 10
429 400
430 400
431 20
432 20
433 10
434 400
435 200
436 20
437 20
438 20
439 200
440 100
441 20
442 20
443 400
444 400
445 100
446 20
447 20
448 10
449 400
450 200
451 100
452 20
453 20
454 400
455 400
456 20
457 10
458 400
459 400
460 10
461 400
462 100
463 20
464 20
465 400
466 400
467 10
468 200
469 20
470 20
471 20
472 20
DEPOT_SECTION
1
-1
EOF