SDVRP instances/p03/p03_1050_tsplib0_splitx10_0.sol
471 -6 3 4 1 5 2 322 321 324 326 325 119 118 -19 18 17 16 174 173 178 177 260 256 259 258 262 257 261 93 -22 74 75 76 77 404 403 402 72 73 71 439 438 441 440 -23 20 21 391 394 393 392 278 275 277 279 276 -29 28 24 26 25 27 443 444 447 442 445 446 -30 213 215 216 214 384 385 78 79 -32 31 33 35 36 34 84 82 81 85 83 80 212 207 206 204 205 -38 40 39 41 37 201 203 202 386 387 390 388 389 -46 43 45 44 42 330 328 332 333 331 329 87 88 86 89 -48 47 52 51 50 49 284 283 414 413 415 -53 55 54 377 376 378 379 309 310 313 358 355 -60 61 58 59 57 56 458 457 459 449 451 448 -64 63 62 167 172 170 171 169 168 199 200 196 198 197 -90 92 94 91 335 336 337 334 338 339 182 -95 97 96 352 353 354 347 348 346 350 351 344 349 345 342 341 343 340 -113 112 114 116 108 110 107 109 253 250 248 255 249 252 254 251 -115 111 117 179 180 183 181 268 269 267 266 -120 121 122 317 316 315 314 318 320 319 -127 126 128 130 129 139 140 138 137 424 427 426 425 422 423 285 287 286 288 136 135 -132 131 134 133 412 235 237 238 236 -142 151 150 146 148 149 147 369 364 368 370 367 365 366 375 373 372 374 11 356 357 -154 152 153 156 157 155 295 293 296 294 292 300 298 297 299 301 302 327 323 -176 175 304 306 305 308 303 307 100 101 99 98 185 186 184 187 188 -192 190 191 189 194 195 193 66 67 65 69 70 68 270 271 239 -208 209 211 210 162 159 163 161 160 158 222 218 219 221 217 220 291 289 290 -225 226 141 144 145 143 381 383 382 380 231 230 234 232 233 -227 228 224 229 223 371 13 15 14 10 12 362 359 360 363 361 -240 241 242 9 7 8 263 264 265 405 406 411 407 409 408 410 -245 246 247 243 244 105 103 104 106 102 124 125 123 312 311 -274 273 272 460 461 463 462 166 164 433 435 436 437 -281 280 282 399 398 401 397 395 400 396 -418 419 421 417 416 420 -428 431 432 430 429 468 471 469 470 467 165 434 450 452 -455 456 454 453 466 465 464 0 





OBJ=
2054.311
BEST_KNOWN=
0.000